Problem:    modelo
Rows:       34
Columns:    22 (21 integer, 21 binary)
Non-zeros:  112
Status:     INTEGER OPTIMAL
Objective:  obj = 16 (MINimum)

   No.   Row name        Activity     Lower bound   Upper bound
------ ------------    ------------- ------------- -------------
     1 obj                        16                             
     2 designicaoTarefas[1]
                                   1             1             = 
     3 designicaoTarefas[2]
                                   1             1             = 
     4 designicaoTarefas[3]
                                   1             1             = 
     5 designicaoTarefas[4]
                                   1             1             = 
     6 designicaoTarefas[5]
                                   1             1             = 
     7 limiteDeTempo[1]
                                   4                           6 
     8 limiteDeTempo[2]
                                   5                           6 
     9 limiteDeTempo[3]
                                   6                           6 
    10 limiteDeRecurso[1]
                                   4                           4 
    11 limiteDeRecurso[2]
                                   4                           4 
    12 limiteDeRecurso[3]
                                   4                           4 
    13 limitaTarefasParaPeriodoUsados[1,1]
                                  -1                          -0 
    14 limitaTarefasParaPeriodoUsados[1,2]
                                   0                          -0 
    15 limitaTarefasParaPeriodoUsados[1,3]
                                  -1                          -0 
    16 limitaTarefasParaPeriodoUsados[1,4]
                                  -1                          -0 
    17 limitaTarefasParaPeriodoUsados[1,5]
                                   0                          -0 
    18 limitaTarefasParaPeriodoUsados[2,1]
                                  -1                          -0 
    19 limitaTarefasParaPeriodoUsados[2,2]
                                  -1                          -0 
    20 limitaTarefasParaPeriodoUsados[2,3]
                                   0                          -0 
    21 limitaTarefasParaPeriodoUsados[2,4]
                                  -1                          -0 
    22 limitaTarefasParaPeriodoUsados[2,5]
                                  -1                          -0 
    23 limitaTarefasParaPeriodoUsados[3,1]
                                   0                          -0 
    24 limitaTarefasParaPeriodoUsados[3,2]
                                  -1                          -0 
    25 limitaTarefasParaPeriodoUsados[3,3]
                                  -1                          -0 
    26 limitaTarefasParaPeriodoUsados[3,4]
                                   0                          -0 
    27 limitaTarefasParaPeriodoUsados[3,5]
                                  -1                          -0 
    28 apenasUmPeriodoComMaiorTempoOcioso
                                   1             1             = 
    29 limitaPeriodoComMaiorTempoOciosoParaPeriodosUsados[1]
                                   0                          -0 
    30 limitaPeriodoComMaiorTempoOciosoParaPeriodosUsados[2]
                                  -1                          -0 
    31 limitaPeriodoComMaiorTempoOciosoParaPeriodosUsados[3]
                                  -1                          -0 
    32 calculaMaiorTempoOcioso[1]
                               1e+06                       1e+06 
    33 calculaMaiorTempoOcioso[2]
                                   1                       1e+06 
    34 calculaMaiorTempoOcioso[3]
                                   2                       1e+06 

   No. Column name       Activity     Lower bound   Upper bound
------ ------------    ------------- ------------- -------------
     3 X[3,1]       *              1             0             1 
     4 X[1,2]       *              1             0             1 
     8 X[2,3]       *              1             0             1 
    12 X[3,4]       *              1             0             1 
    13 X[1,5]       *              1             0             1 
    16 y[1]         *              1             0             1 
    17 y[2]         *              1             0             1 
    18 y[3]         *              1             0             1 
    19 w[1]         *              1             0             1 
    20 w[2]         *              0             0             1 
    21 w[3]         *              0             0             1 
    22 z                           2             0               

Integer feasibility conditions:

KKT.PE: max.abs.err = 0.00e+00 on row 0
        max.rel.err = 0.00e+00 on row 0
        High quality

KKT.PB: max.abs.err = 0.00e+00 on row 0
        max.rel.err = 0.00e+00 on row 0
        High quality

End of output
